NAME          COPTPROB
OBJSENSE
  MIN
ROWS
 N  __OBJ___
 L  C30     
 L  C58     
 L  C102    
 L  C112    
 L  C119    
 L  C185    
COLUMNS
    MARKER    'MARKER'                 'INTORG'
    x44       __OBJ___  194
    x44       C102      -1
    x44       C112      -1
    x66       __OBJ___  182
    x66       C30       -1
    x66       C58       -1
    x214      __OBJ___  291
    x214      C30       -1
    x214      C112      -1
    x265      __OBJ___  161
    x265      C30       -1
    x341      __OBJ___  331
    x341      C119      -1
    x341      C185      -1
    x491      __OBJ___  510
    x491      C102      -1
    x491      C119      -1
    x757      __OBJ___  30
    x757      C58       -1
    x757      C185      -1
    MARKER    'MARKER'                 'INTEND'
RHS
    RHS       __OBJ___  -18777
    RHS       C30       -1
    RHS       C58       -1
    RHS       C102      -1
    RHS       C112      -1
    RHS       C119      -1
    RHS       C185      -1
BOUNDS
 UP BOUND     x44       1
 UP BOUND     x66       1
 UP BOUND     x214      1
 UP BOUND     x265      1
 UP BOUND     x341      1
 UP BOUND     x491      1
 UP BOUND     x757      1
ENDATA
